Gurobi Optimizer version 9.1.2 build v9.1.2rc0 (linux64)
Thread count: 36 physical cores, 72 logical processors, using up to 32 threads
Optimize a model with 12 rows, 57 columns and 590 nonzeros
Model fingerprint: 0xf32eec78
Model has 47 quadratic constraints
Coefficient statistics:
  Matrix range     [2e-05, 3e+00]
  QMatrix range    [1e+00, 1e+00]
  QLMatrix range   [1e+00, 1e+00]
  Objective range  [8e-03, 7e-01]
  Bounds range     [1e+00, 1e+00]
  RHS range        [1e+00, 1e+00]
Presolve removed 9 rows and 0 columns

Continuous model is non-convex -- solving as a MIP.

Presolve removed 9 rows and 0 columns
Presolve time: 0.00s
Presolved: 189 rows, 57 columns, 443 nonzeros
Presolved model has 47 bilinear constraint(s)
Variable types: 57 continuous, 0 integer (0 binary)

Root relaxation: objective -1.743721e+00, 44 iterations, 0.00 seconds

    Nodes    |    Current Node    |     Objective Bounds      |     Work
 Expl Unexpl |  Obj  Depth IntInf | Incumbent    BestBd   Gap | It/Node Time

     0     0   -1.74372    0   38          -   -1.74372      -     -    0s
H    0     0                       0.6147548   -1.74372   384%     -    0s
     0     0   -1.64739    0    1    0.61475   -1.64739   368%     -    0s
H    0     0                      -1.6450460   -1.64739  0.14%     -    0s
     0     0     cutoff    0        -1.64505   -1.64505  0.00%     -    0s

Cutting planes:
  RLT: 25
  BQP: 3

Explored 1 nodes (76 simplex iterations) in 0.01 seconds
Thread count was 32 (of 72 available processors)

Solution count 2: -1.64505 0.614755 
No other solutions better than -1.64505

Optimal solution found (tolerance 1.00e-04)
Best objective -1.645045978473e+00, best bound -1.645045978473e+00, gap 0.0000%

User-callback calls 78, time in user-callback 0.00 sec
Gurobi Optimizer version 9.1.2 build v9.1.2rc0 (linux64)
Thread count: 36 physical cores, 72 logical processors, using up to 32 threads
Optimize a model with 24 rows, 120 columns and 2480 nonzeros
Model fingerprint: 0x40a45710
Model has 100 quadratic constraints
Coefficient statistics:
  Matrix range     [8e-06, 4e+00]
  QMatrix range    [1e+00, 1e+00]
  QLMatrix range   [1e+00, 1e+00]
  Objective range  [4e-03, 9e-01]
  Bounds range     [1e+00, 1e+00]
  RHS range        [1e+00, 1e+00]
Presolve removed 17 rows and 0 columns

Continuous model is non-convex -- solving as a MIP.

Presolve removed 17 rows and 0 columns
Presolve time: 0.00s
Presolved: 407 rows, 120 columns, 1232 nonzeros
Presolved model has 100 bilinear constraint(s)
Variable types: 120 continuous, 0 integer (0 binary)

Root relaxation: objective -5.958308e+00, 144 iterations, 0.00 seconds

    Nodes    |    Current Node    |     Objective Bounds      |     Work
 Expl Unexpl |  Obj  Depth IntInf | Incumbent    BestBd   Gap | It/Node Time

     0     0   -5.95831    0   92          -   -5.95831      -     -    0s
H    0     0                       1.7522802   -5.95831   440%     -    0s
     0     0   -4.16209    0  100    1.75228   -4.16209   338%     -    0s
H    0     0                       0.6673316   -4.16209   724%     -    0s
     0     0   -3.64113    0   90    0.66733   -3.64113   646%     -    0s
H    0     0                      -0.1414001   -3.64113  2475%     -    0s
     0     0   -3.61124    0  100   -0.14140   -3.61124  2454%     -    0s
     0     0   -3.42015    0  100   -0.14140   -3.42015  2319%     -    0s
H    0     0                      -0.3204695   -3.42015   967%     -    0s
     0     0   -3.38949    0  100   -0.32047   -3.38949   958%     -    0s
     0     0   -3.37397    0  100   -0.32047   -3.37397   953%     -    0s
     0     0   -3.36994    0  100   -0.32047   -3.36994   952%     -    0s
     0     0   -3.35898    0  100   -0.32047   -3.35898   948%     -    0s
     0     0   -3.35774    0  100   -0.32047   -3.35774   948%     -    0s
     0     0   -3.35618    0  100   -0.32047   -3.35618   947%     -    0s
     0     0   -3.35595    0  100   -0.32047   -3.35595   947%     -    0s
     0     0   -3.35579    0  100   -0.32047   -3.35579   947%     -    0s
H    0     0                      -1.5363528   -3.35579   118%     -    0s
H    0     0                      -1.9255759   -3.35579  74.3%     -    0s
H    0     0                      -2.0704136   -3.35579  62.1%     -    0s
H    0     0                      -2.0719731   -3.35579  62.0%     -    0s
     0     2   -3.35579    0  100   -2.07197   -3.35579  62.0%     -    0s
*  561   486              20      -2.3711305   -2.95685  24.7%  32.1    0s
*  769   654              27      -2.8501254   -2.95685  3.74%  28.1    0s
*  887   540              18      -2.8803595   -2.89392  0.47%  26.0    0s

Cutting planes:
  RLT: 89
  BQP: 18
  PSD: 16

Explored 1279 nodes (24848 simplex iterations) in 0.51 seconds
Thread count was 32 (of 72 available processors)

Solution count 10: -2.88036 -2.85013 -2.37113 ... 0.667332
No other solutions better than -2.88036

Optimal solution found (tolerance 1.00e-04)
Best objective -2.880359458307e+00, best bound -2.880359458307e+00, gap 0.0000%

User-callback calls 2822, time in user-callback 0.00 sec



objective value: -2.880359458307244
objective bound: -2.880359458307244
x_opt: [0.0, 1.0, 1.0, 0.4512624031775145, 1.0, 0.0, 0.0744091173948268, 0.0, 0.17893850255691734, 1.0, 0.0, 0.0026198179707327403, 1.0, 1.0, 1.0, 0.0, 4.235164736271502e-22, 0.0, 0.0, 0.0]
GUROBI solution time: 0.511570930480957




